c Grafo no formato DIMACS 
p edge 50 121 
e 1 38 
e 1 32 
e 1 23 
e 1 20 
e 1 19 
e 1 17 
e 1 7 
e 2 48 
e 2 35 
e 2 31 
e 2 8 
e 2 6 
e 3 45 
e 3 41 
e 3 16 
e 3 10 
e 3 4 
e 4 47 
e 4 46 
e 4 40 
e 4 31 
e 4 16 
e 4 6 
e 5 28 
e 5 20 
e 5 6 
e 6 50 
e 6 36 
e 6 34 
e 6 26 
e 6 22 
e 6 19 
e 7 31 
e 8 43 
e 8 39 
e 8 35 
e 8 22 
e 8 21 
e 8 19 
e 8 18 
e 8 10 
e 9 46 
e 9 33 
e 9 15 
e 10 44 
e 10 41 
e 10 31 
e 10 21 
e 10 13 
e 11 44 
e 11 38 
e 11 22 
e 12 44 
e 12 37 
e 12 21 
e 13 47 
e 13 36 
e 13 34 
e 13 24 
e 13 16 
e 14 33 
e 14 22 
e 14 20 
e 15 49 
e 15 36 
e 15 29 
e 16 39 
e 16 30 
e 17 41 
e 17 36 
e 17 26 
e 17 22 
e 18 48 
e 18 29 
e 19 39 
e 19 27 
e 19 24 
e 19 23 
e 20 50 
e 20 41 
e 20 31 
e 21 50 
e 21 35 
e 21 33 
e 21 25 
e 22 40 
e 22 33 
e 23 49 
e 26 45 
e 26 44 
e 26 35 
e 26 28 
e 27 49 
e 27 37 
e 27 35 
e 28 33 
e 29 44 
e 29 34 
e 30 41 
e 30 37 
e 31 48 
e 31 43 
e 31 37 
e 32 45 
e 33 41 
e 33 35 
e 34 37 
e 36 40 
e 36 37 
e 38 46 
e 38 40 
e 39 49 
e 39 47 
e 39 43 
e 41 43 
e 41 42 
e 42 48 
e 42 44 
e 43 50 
e 43 46 
e 47 50 
